(set-logic QF_S)
(declare-fun var0 () String)
(assert (str.in.re var0 (re.++ (re.+ (re.union (str.to.re "00") (str.to.re "111"))) (re.++ (re.+ (re.* (str.to.re "22"))) (re.++ (re.+ (re.* (str.to.re "33"))) (re.++ (re.* (re.* (str.to.re "444"))) (re.++ (re.* (re.union (str.to.re "5") (str.to.re "6"))) (re.++ (re.union (re.union (str.to.re "777") (str.to.re "8")) (re.* (str.to.re "99"))) (re.++ (re.* (re.union (str.to.re "aa") (str.to.re "bb"))) (re.++ (re.union (re.union (str.to.re "c") (str.to.re "ddd")) (re.union (str.to.re "ee") (str.to.re "f"))) (re.++ (re.+ (re.* (str.to.re "ggg"))) (re.+ (re.union (str.to.re "hhh") (str.to.re "i"))))))))))))))
(check-sat)